Route #1: 15 50 23 45 25 30 24 22 46 
Route #2: 39 29 14 7 26 
Route #3: 33 19 3 48 28 42 11 
Route #4: 35 6 43 4 16 40 36 17 5 
Route #5: 41 27 31 32 37 12 8 
Route #6: 21 44 1 20 9 49 47 
Route #7: 13 18 38 34 2 10 
cost 1158.8
execution_time 36.965
